1741.98 231645
44686 180354
243435 2345.75
238083 5750.5
52539.6 176219
155744 86059.1
109829 132505
51536.8 177716
212169 31643.8
52177.9 177465
227667 18493.4
183418 68858.1
78901.2 166991
68680.3 168423
204399 34689.9
17960.8 230213
54945.2 175653
37466.3 199001
98414.2 136522
116100 126776
41415.4 191980
137926 94895.2
21366.5 210057
85699.2 151170
138598 92856.7
119838 121439
61145.2 174577
90554.9 140965
133443 100965
38711.2 192880
189436 60789.4
128320 118789
80565.1 160996
129477 118710
130261 101695
78265 167339
97356.4 137488
160771 79079.8
38559.3 195519
91801.8 140388
186605 61309.7
186010 67399.5
86163.9 150162
240350 3120.35
206347 33395.9
129821 105442
130124 102407
43317.3 189560
138337 94383.4
20583 218367
190751 57936.6
139996 92779.7
142488 90669.2
87469.6 145379
89245.5 143882
154507 88185
34850.2 206554
136516 98177.6
84038.3 158279
17998.4 227006
137880 95308.1
185408 67483.1
160675 79366.9
